(set-info :smt-lib-version 2.6)
(set-logic QF_ALIA)
(set-info :notes "Adapted for Array Sum evaluation.
Base file: qlock.induction.14.smt2")
(set-info :source |
Unbounded version of the queue lock algorithm.
|)
(set-info :category "industrial")
(declare-fun x_0 () (Array Int Int))
(declare-fun x_1 () Int)
(declare-fun x_2 () Int)
(declare-fun x_3 () (Array Int Int))
(declare-fun x_4 () (Array Int Int))
(declare-fun x_5 () (Array Int Int))
(declare-fun x_6 () (Array Int Int))
(declare-fun x_7 () (Array Int Int))
(declare-fun x_8 () (Array Int Int))
(declare-fun x_9 () (Array Int Int))
(declare-fun x_10 () (Array Int Int))
(declare-fun x_11 () (Array Int Int))
(declare-fun x_12 () (Array Int Int))
(declare-fun x_13 () (Array Int Int))
(declare-fun x_14 () (Array Int Int))
(declare-fun x_15 () (Array Int Int))
(declare-fun x_16 () (Array Int Int))
(declare-fun x_17 () Int)
(declare-fun x_18 () Int)
(declare-fun x_19 () (Array Int Int))
(declare-fun x_20 () Int)
(declare-fun x_21 () Bool)
(declare-fun x_22 () Bool)
(declare-fun x_23 () Int)
(declare-fun x_24 () Int)
(declare-fun x_25 () Int)
(declare-fun x_26 () Int)
(declare-fun x_27 () Int)
(declare-fun x_28 () Int)
(declare-fun x_29 () Int)
(declare-fun x_30 () Int)
(declare-fun x_31 () Int)
(declare-fun x_32 () Int)
(declare-fun x_33 () Int)
(declare-fun x_34 () Int)
(declare-fun x_35 () (Array Int Int))
(declare-fun x_36 () Int)
(declare-fun x_37 () Bool)
(declare-fun x_38 () Int)
(declare-fun x_39 () Int)
(declare-fun x_40 () Int)
(declare-fun x_41 () Int)
(declare-fun x_42 () Int)
(declare-fun x_43 () Int)
(declare-fun x_44 () Int)
(declare-fun x_45 () Int)
(declare-fun x_46 () Int)
(declare-fun x_47 () Int)
(declare-fun x_48 () (Array Int Int))
(declare-fun x_49 () Int)
(declare-fun x_50 () Bool)
(declare-fun x_51 () Int)
(declare-fun x_52 () Int)
(declare-fun x_53 () Int)
(declare-fun x_54 () Int)
(declare-fun x_55 () Int)
(declare-fun x_56 () Int)
(declare-fun x_57 () Int)
(declare-fun x_58 () Int)
(declare-fun x_59 () Int)
(declare-fun x_60 () Int)
(declare-fun x_61 () (Array Int Int))
(declare-fun x_62 () Int)
(declare-fun x_63 () Bool)
(declare-fun x_64 () Int)
(declare-fun x_65 () Int)
(declare-fun x_66 () Int)
(declare-fun x_67 () Int)
(declare-fun x_68 () Int)
(declare-fun x_69 () Int)
(declare-fun x_70 () Int)
(declare-fun x_71 () Int)
(declare-fun x_72 () Int)
(declare-fun x_73 () Int)
(declare-fun x_74 () (Array Int Int))
(declare-fun x_75 () Int)
(declare-fun x_76 () Bool)
(declare-fun x_77 () Int)
(declare-fun x_78 () Int)
(declare-fun x_79 () Int)
(declare-fun x_80 () Int)
(declare-fun x_81 () Int)
(declare-fun x_82 () Int)
(declare-fun x_83 () Int)
(declare-fun x_84 () Int)
(declare-fun x_85 () Int)
(declare-fun x_86 () Int)
(declare-fun x_87 () (Array Int Int))
(declare-fun x_88 () Int)
(declare-fun x_89 () Bool)
(declare-fun x_90 () Int)
(declare-fun x_91 () Int)
(declare-fun x_92 () Int)
(declare-fun x_93 () Int)
(declare-fun x_94 () Int)
(declare-fun x_95 () Int)
(declare-fun x_96 () Int)
(declare-fun x_97 () Int)
(declare-fun x_98 () Int)
(declare-fun x_99 () Int)
(declare-fun x_100 () (Array Int Int))
(declare-fun x_101 () Int)
(declare-fun x_102 () Bool)
(declare-fun x_103 () Int)
(declare-fun x_104 () Int)
(declare-fun x_105 () Int)
(declare-fun x_106 () Int)
(declare-fun x_107 () Int)
(declare-fun x_108 () Int)
(declare-fun x_109 () Int)
(declare-fun x_110 () Int)
(declare-fun x_111 () Int)
(declare-fun x_112 () Int)
(declare-fun x_113 () (Array Int Int))
(declare-fun x_114 () Int)
(declare-fun x_115 () Bool)
(declare-fun x_116 () Int)
(declare-fun x_117 () Int)
(declare-fun x_118 () Int)
(declare-fun x_119 () Int)
(declare-fun x_120 () Int)
(declare-fun x_121 () Int)
(declare-fun x_122 () Int)
(declare-fun x_123 () Int)
(declare-fun x_124 () Int)
(declare-fun x_125 () Int)
(declare-fun x_126 () (Array Int Int))
(declare-fun x_127 () Int)
(declare-fun x_128 () Bool)
(declare-fun x_129 () Int)
(declare-fun x_130 () Int)
(declare-fun x_131 () Int)
(declare-fun x_132 () Int)
(declare-fun x_133 () Int)
(declare-fun x_134 () Int)
(declare-fun x_135 () Int)
(declare-fun x_136 () Int)
(declare-fun x_137 () Int)
(declare-fun x_138 () Int)
(declare-fun x_139 () (Array Int Int))
(declare-fun x_140 () Int)
(declare-fun x_141 () Bool)
(declare-fun x_142 () Int)
(declare-fun x_143 () Int)
(declare-fun x_144 () Int)
(declare-fun x_145 () Int)
(declare-fun x_146 () Int)
(declare-fun x_147 () Int)
(declare-fun x_148 () Int)
(declare-fun x_149 () Int)
(declare-fun x_150 () Int)
(declare-fun x_151 () Int)
(declare-fun x_152 () (Array Int Int))
(declare-fun x_153 () Int)
(declare-fun x_154 () Bool)
(declare-fun x_155 () Int)
(declare-fun x_156 () Int)
(declare-fun x_157 () Int)
(declare-fun x_158 () Int)
(declare-fun x_159 () Int)
(declare-fun x_160 () Int)
(declare-fun x_161 () Int)
(declare-fun x_162 () Int)
(declare-fun x_163 () Int)
(declare-fun x_164 () Int)
(declare-fun x_165 () (Array Int Int))
(declare-fun x_166 () Int)
(declare-fun x_167 () Bool)
(declare-fun x_168 () Int)
(declare-fun x_169 () Int)
(declare-fun x_170 () Int)
(declare-fun x_171 () Int)
(declare-fun x_172 () Int)
(declare-fun x_173 () Int)
(declare-fun x_174 () Int)
(declare-fun x_175 () Int)
(declare-fun x_176 () Int)
(declare-fun x_177 () Int)
(declare-fun x_178 () (Array Int Int))
(declare-fun x_179 () Int)
(declare-fun x_180 () Bool)
(declare-fun x_181 () Int)
(declare-fun x_182 () Int)
(declare-fun x_183 () Int)
(declare-fun x_184 () Int)
(declare-fun x_185 () Int)
(declare-fun x_186 () Int)
(declare-fun x_187 () Int)
(declare-fun x_188 () Int)
(declare-fun x_189 () Int)
(declare-fun x_190 () Int)
(declare-fun x_191 () (Array Int Int))
(declare-fun x_192 () Int)
(declare-fun x_193 () Bool)
(declare-fun x_194 () Int)
(declare-fun x_195 () Int)
(declare-fun x_196 () Int)
(declare-fun x_197 () Int)
(declare-fun x_198 () Int)
(declare-fun x_199 () (Array Int Int))
(declare-fun x_200 () Int)
(declare-fun x_201 () Int)
(declare-fun x_202 () Int)
(declare-fun x_203 () Int)
(declare-fun x_204 () Int)
(declare-fun x_205 () Int)
(declare-fun x_206 () Int)
(declare-fun x_207 () Int)
(declare-fun x_208 () Int)
(declare-fun x_209 () Int)
(declare-fun x_210 () Int)
(declare-fun x_211 () Int)
(declare-fun x_212 () Int)
(declare-fun x_213 () Int)
(declare-fun x_214 () Int)
(declare-fun x_215 () Int)
(declare-fun x_216 () Int)
(declare-fun x_217 () Int)
(declare-fun x_218 () Int)
(declare-fun x_219 () Int)
(declare-fun x_220 () Int)
(declare-fun x_221 () Int)
(declare-fun x_222 () Int)
(declare-fun x_223 () Int)
(declare-fun x_224 () Int)
(declare-fun x_225 () Int)
(declare-fun x_226 () Int)
(declare-fun x_227 () Int)
(declare-fun x_228 () Int)
(declare-fun x_229 () Int)
(declare-fun x_230 () Int)
(declare-fun x_231 () Int)
(declare-fun x_232 () Int)
(declare-fun x_233 () Int)
(declare-fun x_234 () Int)
(declare-fun x_235 () Int)
(declare-fun x_236 () Int)
(declare-fun x_237 () Int)
(declare-fun x_238 () Int)
(declare-fun x_239 () Int)
(declare-fun x_240 () Int)
(declare-fun x_241 () Int)
(declare-fun x_242 () Int)
(declare-fun x_243 () Int)
(declare-fun x_244 () Int)
(declare-fun x_245 () Int)
(declare-fun x_246 () Int)
(declare-fun x_247 () Int)
(declare-fun x_248 () Int)
(declare-fun x_249 () Int)
(declare-fun x_250 () Int)
(declare-fun x_251 () Int)
(declare-fun x_252 () Int)
(declare-fun x_253 () Int)
(declare-fun x_254 () Int)
(declare-fun x_255 () Int)
(declare-fun x_256 () Int)
(declare-fun x_257 () Int)
(declare-fun x_258 () Int)
(declare-fun x_259 () Int)
(declare-fun x_260 () Int)
(declare-fun x_261 () Int)
(declare-fun x_262 () Int)
(declare-fun x_263 () Int)
(declare-fun x_264 () Int)
(declare-fun x_265 () Int)
(declare-fun x_266 () Int)
(declare-fun x_267 () Int)
(declare-fun x_268 () Int)
(declare-fun x_269 () Int)
(declare-fun x_270 () Int)
(declare-fun x_271 () Int)
(declare-fun x_272 () Int)
(declare-fun x_273 () Int)
(declare-fun x_274 () Int)
(declare-fun x_275 () Int)
(declare-fun x_276 () Int)
(declare-fun x_277 () Int)
(declare-fun x_278 () Int)
(declare-fun x_279 () Int)
(declare-fun x_280 () Int)
(declare-fun x_281 () Int)
(declare-fun x_282 () Int)
(declare-fun x_283 () Int)
(declare-fun x_284 () Int)
(declare-fun x_285 () Int)
(declare-fun x_286 () Int)
(declare-fun x_287 () Int)
(declare-fun x_288 () Int)
(declare-fun x_289 () Int)
(assert (let ((?v_68 (= x_19 x_16)) (?v_65 (= x_20 x_17)) (?v_66 (= x_21 x_22)) (?v_69 (= x_23 x_24)) (?v_67 (not (<= x_24 x_17))) (?v_63 (= x_35 x_19)) (?v_60 (= x_36 x_20)) (?v_61 (= x_37 x_21)) (?v_64 (= x_38 x_23)) (?v_62 (not (<= x_23 x_20))) (?v_58 (= x_48 x_35)) (?v_55 (= x_49 x_36)) (?v_56 (= x_50 x_37)) (?v_59 (= x_51 x_38)) (?v_57 (not (<= x_38 x_36))) (?v_53 (= x_61 x_48)) (?v_50 (= x_62 x_49)) (?v_51 (= x_63 x_50)) (?v_54 (= x_64 x_51)) (?v_52 (not (<= x_51 x_49))) (?v_48 (= x_74 x_61)) (?v_45 (= x_75 x_62)) (?v_46 (= x_76 x_63)) (?v_49 (= x_77 x_64)) (?v_47 (not (<= x_64 x_62))) (?v_43 (= x_87 x_74)) (?v_40 (= x_88 x_75)) (?v_41 (= x_89 x_76)) (?v_44 (= x_90 x_77)) (?v_42 (not (<= x_77 x_75))) (?v_38 (= x_100 x_87)) (?v_35 (= x_101 x_88)) (?v_36 (= x_102 x_89)) (?v_39 (= x_103 x_90)) (?v_37 (not (<= x_90 x_88))) (?v_33 (= x_113 x_100)) (?v_30 (= x_114 x_101)) (?v_31 (= x_115 x_102)) (?v_34 (= x_116 x_103)) (?v_32 (not (<= x_103 x_101))) (?v_28 (= x_126 x_113)) (?v_25 (= x_127 x_114)) (?v_26 (= x_128 x_115)) (?v_29 (= x_129 x_116)) (?v_27 (not (<= x_116 x_114))) (?v_23 (= x_139 x_126)) (?v_20 (= x_140 x_127)) (?v_21 (= x_141 x_128)) (?v_24 (= x_142 x_129)) (?v_22 (not (<= x_129 x_127))) (?v_18 (= x_152 x_139)) (?v_15 (= x_153 x_140)) (?v_16 (= x_154 x_141)) (?v_19 (= x_155 x_142)) (?v_17 (not (<= x_142 x_140))) (?v_13 (= x_165 x_152)) (?v_10 (= x_166 x_153)) (?v_11 (= x_167 x_154)) (?v_14 (= x_168 x_155)) (?v_12 (not (<= x_155 x_153))) (?v_8 (= x_178 x_165)) (?v_5 (= x_179 x_166)) (?v_6 (= x_180 x_167)) (?v_9 (= x_181 x_168)) (?v_7 (not (<= x_168 x_166))) (?v_3 (= x_191 x_178)) (?v_0 (= x_192 x_179)) (?v_1 (= x_193 x_180)) (?v_4 (= x_194 x_181)) (?v_2 (not (<= x_181 x_179)))) (and (and (and (and (and (and (and (and (and (and (and (and (and (and (and (and (and (and (and (and (and (and (and (and (and (and (and (and (and (and (and (and (and (and (and (and (and (and (and (and (and (and (and (and (and (and (and (and (and (and (and (and (and (and (and (and (and (and (and (and (and (and (and (and (and (and (and (and (and (and (and (and (and (and (and (and (and (and (and (and (and (and (and (and (and (and (and (and (and (and (and (and (and (and (and (and (and (and (and (and (and (and (and (and (and (and (and (and (and (and (and (and (and (and (and (and (and (and (and (and (and (and (and (and (and (and (and (and (and (and (and (and (and (and (and (and (and (and (and (and (and (and (and (and (not (= x_2 x_1)) (= x_204 (select x_15 x_1))) (= x_205 (select x_15 x_2))) (or (not (= x_204 3)) (not (= x_205 3)))) (= x_206 (select x_14 x_1))) (= x_207 (select x_14 x_2))) (or (not (= x_206 3)) (not (= x_207 3)))) (= x_208 (select x_13 x_1))) (= x_209 (select x_13 x_2))) (or (not (= x_208 3)) (not (= x_209 3)))) (= x_210 (select x_12 x_1))) (= x_211 (select x_12 x_2))) (or (not (= x_210 3)) (not (= x_211 3)))) (= x_212 (select x_11 x_1))) (= x_213 (select x_11 x_2))) (or (not (= x_212 3)) (not (= x_213 3)))) (= x_214 (select x_10 x_1))) (= x_215 (select x_10 x_2))) (or (not (= x_214 3)) (not (= x_215 3)))) (= x_216 (select x_9 x_1))) (= x_217 (select x_9 x_2))) (or (not (= x_216 3)) (not (= x_217 3)))) (= x_218 (select x_8 x_1))) (= x_219 (select x_8 x_2))) (or (not (= x_218 3)) (not (= x_219 3)))) (= x_220 (select x_7 x_1))) (= x_221 (select x_7 x_2))) (or (not (= x_220 3)) (not (= x_221 3)))) (= x_222 (select x_6 x_1))) (= x_223 (select x_6 x_2))) (or (not (= x_222 3)) (not (= x_223 3)))) (= x_224 (select x_5 x_1))) (= x_225 (select x_5 x_2))) (or (not (= x_224 3)) (not (= x_225 3)))) (= x_226 (select x_4 x_1))) (= x_227 (select x_4 x_2))) (or (not (= x_226 3)) (not (= x_227 3)))) (= x_228 (select x_3 x_1))) (= x_229 (select x_3 x_2))) (or (not (= x_228 3)) (not (= x_229 3)))) (= x_230 (select x_0 x_1))) (= x_231 (select x_0 x_2))) (or (not (= x_230 3)) (not (= x_231 3)))) (= x_232 (select x_16 x_17))) (= x_18 x_232)) (= x_233 (select x_19 x_20))) (= x_34 x_233)) (= x_234 (select x_35 x_36))) (= x_47 x_234)) (= x_235 (select x_48 x_49))) (= x_60 x_235)) (= x_236 (select x_61 x_62))) (= x_73 x_236)) (= x_237 (select x_74 x_75))) (= x_86 x_237)) (= x_238 (select x_87 x_88))) (= x_99 x_238)) (= x_239 (select x_100 x_101))) (= x_112 x_239)) (= x_240 (select x_113 x_114))) (= x_125 x_240)) (= x_241 (select x_126 x_127))) (= x_138 x_241)) (= x_242 (select x_139 x_140))) (= x_151 x_242)) (= x_243 (select x_152 x_153))) (= x_164 x_243)) (= x_244 (select x_165 x_166))) (= x_177 x_244)) (= x_245 (select x_178 x_179))) (= x_190 x_245)) (= x_195 (+ x_182 1))) (= x_246 (select x_15 x_197))) (= x_247 (select x_15 x_200))) (= x_248 (select x_15 x_202))) (or (or (or (and (and (and (and (and (and (and (= x_196 0) (= x_194 (+ x_181 1))) ?v_0) ?v_1) (= x_198 x_197)) (= x_246 1)) (= x_199 (store x_15 x_197 2))) (= x_191 (store x_178 x_181 x_197))) (and (and (and (and (and (and (and (and (and (= x_196 1) ?v_2) ?v_0) ?v_1) ?v_3) ?v_4) (= x_201 x_200)) (= x_247 2)) (= x_190 x_200)) (= x_199 (store x_15 x_200 3)))) (and (and (and (and (and (and (and (and (and (= x_196 2) ?v_2) (= x_192 (+ x_179 1))) ?v_1) ?v_3) ?v_4) (= x_203 x_202)) (= x_248 3)) (or (not (<= x_182 12)) (= x_190 x_202))) (= x_199 (store x_15 x_202 1)))) (and (and (and (and (and (= x_196 3) ?v_3) ?v_0) ?v_1) (= x_199 x_15)) ?v_4))) (= x_182 (+ x_169 1))) (= x_249 (select x_14 x_184))) (= x_250 (select x_14 x_186))) (= x_251 (select x_14 x_188))) (or (or (or (and (and (and (and (and (and (and (= x_183 0) (= x_181 (+ x_168 1))) ?v_5) ?v_6) (= x_185 x_184)) (= x_249 1)) (= x_15 (store x_14 x_184 2))) (= x_178 (store x_165 x_168 x_184))) (and (and (and (and (and (and (and (and (and (= x_183 1) ?v_7) ?v_5) ?v_6) ?v_8) ?v_9) (= x_187 x_186)) (= x_250 2)) (= x_177 x_186)) (= x_15 (store x_14 x_186 3)))) (and (and (and (and (and (and (and (and (and (= x_183 2) ?v_7) (= x_179 (+ x_166 1))) ?v_6) ?v_8) ?v_9) (= x_189 x_188)) (= x_251 3)) (or (not (<= x_169 12)) (= x_177 x_188))) (= x_15 (store x_14 x_188 1)))) (and (and (and (and (and (= x_183 3) ?v_8) ?v_5) ?v_6) (= x_15 x_14)) ?v_9))) (= x_169 (+ x_156 1))) (= x_252 (select x_13 x_171))) (= x_253 (select x_13 x_173))) (= x_254 (select x_13 x_175))) (or (or (or (and (and (and (and (and (and (and (= x_170 0) (= x_168 (+ x_155 1))) ?v_10) ?v_11) (= x_172 x_171)) (= x_252 1)) (= x_14 (store x_13 x_171 2))) (= x_165 (store x_152 x_155 x_171))) (and (and (and (and (and (and (and (and (and (= x_170 1) ?v_12) ?v_10) ?v_11) ?v_13) ?v_14) (= x_174 x_173)) (= x_253 2)) (= x_164 x_173)) (= x_14 (store x_13 x_173 3)))) (and (and (and (and (and (and (and (and (and (= x_170 2) ?v_12) (= x_166 (+ x_153 1))) ?v_11) ?v_13) ?v_14) (= x_176 x_175)) (= x_254 3)) (or (not (<= x_156 12)) (= x_164 x_175))) (= x_14 (store x_13 x_175 1)))) (and (and (and (and (and (= x_170 3) ?v_13) ?v_10) ?v_11) (= x_14 x_13)) ?v_14))) (= x_156 (+ x_143 1))) (= x_255 (select x_12 x_158))) (= x_256 (select x_12 x_160))) (= x_257 (select x_12 x_162))) (or (or (or (and (and (and (and (and (and (and (= x_157 0) (= x_155 (+ x_142 1))) ?v_15) ?v_16) (= x_159 x_158)) (= x_255 1)) (= x_13 (store x_12 x_158 2))) (= x_152 (store x_139 x_142 x_158))) (and (and (and (and (and (and (and (and (and (= x_157 1) ?v_17) ?v_15) ?v_16) ?v_18) ?v_19) (= x_161 x_160)) (= x_256 2)) (= x_151 x_160)) (= x_13 (store x_12 x_160 3)))) (and (and (and (and (and (and (and (and (and (= x_157 2) ?v_17) (= x_153 (+ x_140 1))) ?v_16) ?v_18) ?v_19) (= x_163 x_162)) (= x_257 3)) (or (not (<= x_143 12)) (= x_151 x_162))) (= x_13 (store x_12 x_162 1)))) (and (and (and (and (and (= x_157 3) ?v_18) ?v_15) ?v_16) (= x_13 x_12)) ?v_19))) (= x_143 (+ x_130 1))) (= x_258 (select x_11 x_145))) (= x_259 (select x_11 x_147))) (= x_260 (select x_11 x_149))) (or (or (or (and (and (and (and (and (and (and (= x_144 0) (= x_142 (+ x_129 1))) ?v_20) ?v_21) (= x_146 x_145)) (= x_258 1)) (= x_12 (store x_11 x_145 2))) (= x_139 (store x_126 x_129 x_145))) (and (and (and (and (and (and (and (and (and (= x_144 1) ?v_22) ?v_20) ?v_21) ?v_23) ?v_24) (= x_148 x_147)) (= x_259 2)) (= x_138 x_147)) (= x_12 (store x_11 x_147 3)))) (and (and (and (and (and (and (and (and (and (= x_144 2) ?v_22) (= x_140 (+ x_127 1))) ?v_21) ?v_23) ?v_24) (= x_150 x_149)) (= x_260 3)) (or (not (<= x_130 12)) (= x_138 x_149))) (= x_12 (store x_11 x_149 1)))) (and (and (and (and (and (= x_144 3) ?v_23) ?v_20) ?v_21) (= x_12 x_11)) ?v_24))) (= x_130 (+ x_117 1))) (= x_261 (select x_10 x_132))) (= x_262 (select x_10 x_134))) (= x_263 (select x_10 x_136))) (or (or (or (and (and (and (and (and (and (and (= x_131 0) (= x_129 (+ x_116 1))) ?v_25) ?v_26) (= x_133 x_132)) (= x_261 1)) (= x_11 (store x_10 x_132 2))) (= x_126 (store x_113 x_116 x_132))) (and (and (and (and (and (and (and (and (and (= x_131 1) ?v_27) ?v_25) ?v_26) ?v_28) ?v_29) (= x_135 x_134)) (= x_262 2)) (= x_125 x_134)) (= x_11 (store x_10 x_134 3)))) (and (and (and (and (and (and (and (and (and (= x_131 2) ?v_27) (= x_127 (+ x_114 1))) ?v_26) ?v_28) ?v_29) (= x_137 x_136)) (= x_263 3)) (or (not (<= x_117 12)) (= x_125 x_136))) (= x_11 (store x_10 x_136 1)))) (and (and (and (and (and (= x_131 3) ?v_28) ?v_25) ?v_26) (= x_11 x_10)) ?v_29))) (= x_117 (+ x_104 1))) (= x_264 (select x_9 x_119))) (= x_265 (select x_9 x_121))) (= x_266 (select x_9 x_123))) (or (or (or (and (and (and (and (and (and (and (= x_118 0) (= x_116 (+ x_103 1))) ?v_30) ?v_31) (= x_120 x_119)) (= x_264 1)) (= x_10 (store x_9 x_119 2))) (= x_113 (store x_100 x_103 x_119))) (and (and (and (and (and (and (and (and (and (= x_118 1) ?v_32) ?v_30) ?v_31) ?v_33) ?v_34) (= x_122 x_121)) (= x_265 2)) (= x_112 x_121)) (= x_10 (store x_9 x_121 3)))) (and (and (and (and (and (and (and (and (and (= x_118 2) ?v_32) (= x_114 (+ x_101 1))) ?v_31) ?v_33) ?v_34) (= x_124 x_123)) (= x_266 3)) (or (not (<= x_104 12)) (= x_112 x_123))) (= x_10 (store x_9 x_123 1)))) (and (and (and (and (and (= x_118 3) ?v_33) ?v_30) ?v_31) (= x_10 x_9)) ?v_34))) (= x_104 (+ x_91 1))) (= x_267 (select x_8 x_106))) (= x_268 (select x_8 x_108))) (= x_269 (select x_8 x_110))) (or (or (or (and (and (and (and (and (and (and (= x_105 0) (= x_103 (+ x_90 1))) ?v_35) ?v_36) (= x_107 x_106)) (= x_267 1)) (= x_9 (store x_8 x_106 2))) (= x_100 (store x_87 x_90 x_106))) (and (and (and (and (and (and (and (and (and (= x_105 1) ?v_37) ?v_35) ?v_36) ?v_38) ?v_39) (= x_109 x_108)) (= x_268 2)) (= x_99 x_108)) (= x_9 (store x_8 x_108 3)))) (and (and (and (and (and (and (and (and (and (= x_105 2) ?v_37) (= x_101 (+ x_88 1))) ?v_36) ?v_38) ?v_39) (= x_111 x_110)) (= x_269 3)) (or (not (<= x_91 12)) (= x_99 x_110))) (= x_9 (store x_8 x_110 1)))) (and (and (and (and (and (= x_105 3) ?v_38) ?v_35) ?v_36) (= x_9 x_8)) ?v_39))) (= x_91 (+ x_78 1))) (= x_270 (select x_7 x_93))) (= x_271 (select x_7 x_95))) (= x_272 (select x_7 x_97))) (or (or (or (and (and (and (and (and (and (and (= x_92 0) (= x_90 (+ x_77 1))) ?v_40) ?v_41) (= x_94 x_93)) (= x_270 1)) (= x_8 (store x_7 x_93 2))) (= x_87 (store x_74 x_77 x_93))) (and (and (and (and (and (and (and (and (and (= x_92 1) ?v_42) ?v_40) ?v_41) ?v_43) ?v_44) (= x_96 x_95)) (= x_271 2)) (= x_86 x_95)) (= x_8 (store x_7 x_95 3)))) (and (and (and (and (and (and (and (and (and (= x_92 2) ?v_42) (= x_88 (+ x_75 1))) ?v_41) ?v_43) ?v_44) (= x_98 x_97)) (= x_272 3)) (or (not (<= x_78 12)) (= x_86 x_97))) (= x_8 (store x_7 x_97 1)))) (and (and (and (and (and (= x_92 3) ?v_43) ?v_40) ?v_41) (= x_8 x_7)) ?v_44))) (= x_78 (+ x_65 1))) (= x_273 (select x_6 x_80))) (= x_274 (select x_6 x_82))) (= x_275 (select x_6 x_84))) (or (or (or (and (and (and (and (and (and (and (= x_79 0) (= x_77 (+ x_64 1))) ?v_45) ?v_46) (= x_81 x_80)) (= x_273 1)) (= x_7 (store x_6 x_80 2))) (= x_74 (store x_61 x_64 x_80))) (and (and (and (and (and (and (and (and (and (= x_79 1) ?v_47) ?v_45) ?v_46) ?v_48) ?v_49) (= x_83 x_82)) (= x_274 2)) (= x_73 x_82)) (= x_7 (store x_6 x_82 3)))) (and (and (and (and (and (and (and (and (and (= x_79 2) ?v_47) (= x_75 (+ x_62 1))) ?v_46) ?v_48) ?v_49) (= x_85 x_84)) (= x_275 3)) (or (not (<= x_65 12)) (= x_73 x_84))) (= x_7 (store x_6 x_84 1)))) (and (and (and (and (and (= x_79 3) ?v_48) ?v_45) ?v_46) (= x_7 x_6)) ?v_49))) (= x_65 (+ x_52 1))) (= x_276 (select x_5 x_67))) (= x_277 (select x_5 x_69))) (= x_278 (select x_5 x_71))) (or (or (or (and (and (and (and (and (and (and (= x_66 0) (= x_64 (+ x_51 1))) ?v_50) ?v_51) (= x_68 x_67)) (= x_276 1)) (= x_6 (store x_5 x_67 2))) (= x_61 (store x_48 x_51 x_67))) (and (and (and (and (and (and (and (and (and (= x_66 1) ?v_52) ?v_50) ?v_51) ?v_53) ?v_54) (= x_70 x_69)) (= x_277 2)) (= x_60 x_69)) (= x_6 (store x_5 x_69 3)))) (and (and (and (and (and (and (and (and (and (= x_66 2) ?v_52) (= x_62 (+ x_49 1))) ?v_51) ?v_53) ?v_54) (= x_72 x_71)) (= x_278 3)) (or (not (<= x_52 12)) (= x_60 x_71))) (= x_6 (store x_5 x_71 1)))) (and (and (and (and (and (= x_66 3) ?v_53) ?v_50) ?v_51) (= x_6 x_5)) ?v_54))) (= x_52 (+ x_39 1))) (= x_279 (select x_4 x_54))) (= x_280 (select x_4 x_56))) (= x_281 (select x_4 x_58))) (or (or (or (and (and (and (and (and (and (and (= x_53 0) (= x_51 (+ x_38 1))) ?v_55) ?v_56) (= x_55 x_54)) (= x_279 1)) (= x_5 (store x_4 x_54 2))) (= x_48 (store x_35 x_38 x_54))) (and (and (and (and (and (and (and (and (and (= x_53 1) ?v_57) ?v_55) ?v_56) ?v_58) ?v_59) (= x_57 x_56)) (= x_280 2)) (= x_47 x_56)) (= x_5 (store x_4 x_56 3)))) (and (and (and (and (and (and (and (and (and (= x_53 2) ?v_57) (= x_49 (+ x_36 1))) ?v_56) ?v_58) ?v_59) (= x_59 x_58)) (= x_281 3)) (or (not (<= x_39 12)) (= x_47 x_58))) (= x_5 (store x_4 x_58 1)))) (and (and (and (and (and (= x_53 3) ?v_58) ?v_55) ?v_56) (= x_5 x_4)) ?v_59))) (= x_39 (+ x_25 1))) (= x_282 (select x_3 x_41))) (= x_283 (select x_3 x_43))) (= x_284 (select x_3 x_45))) (or (or (or (and (and (and (and (and (and (and (= x_40 0) (= x_38 (+ x_23 1))) ?v_60) ?v_61) (= x_42 x_41)) (= x_282 1)) (= x_4 (store x_3 x_41 2))) (= x_35 (store x_19 x_23 x_41))) (and (and (and (and (and (and (and (and (and (= x_40 1) ?v_62) ?v_60) ?v_61) ?v_63) ?v_64) (= x_44 x_43)) (= x_283 2)) (= x_34 x_43)) (= x_4 (store x_3 x_43 3)))) (and (and (and (and (and (and (and (and (and (= x_40 2) ?v_62) (= x_36 (+ x_20 1))) ?v_61) ?v_63) ?v_64) (= x_46 x_45)) (= x_284 3)) (or (not (<= x_25 12)) (= x_34 x_45))) (= x_4 (store x_3 x_45 1)))) (and (and (and (and (and (= x_40 3) ?v_63) ?v_60) ?v_61) (= x_4 x_3)) ?v_64))) (= x_25 (+ x_26 1))) (= x_285 (select x_0 x_28))) (= x_286 (select x_0 x_30))) (= x_287 (select x_0 x_32))) (or (or (or (and (and (and (and (and (and (and (= x_27 0) (= x_23 (+ x_24 1))) ?v_65) ?v_66) (= x_29 x_28)) (= x_285 1)) (= x_3 (store x_0 x_28 2))) (= x_19 (store x_16 x_24 x_28))) (and (and (and (and (and (and (and (and (and (= x_27 1) ?v_67) ?v_65) ?v_66) ?v_68) ?v_69) (= x_31 x_30)) (= x_286 2)) (= x_18 x_30)) (= x_3 (store x_0 x_30 3)))) (and (and (and (and (and (and (and (and (and (= x_27 2) ?v_67) (= x_20 (+ x_17 1))) ?v_66) ?v_68) ?v_69) (= x_33 x_32)) (= x_287 3)) (or (not (<= x_26 12)) (= x_18 x_32))) (= x_3 (store x_0 x_32 1)))) (and (and (and (and (and (= x_27 3) ?v_68) ?v_65) ?v_66) (= x_3 x_0)) ?v_69))) (= x_288 (select x_199 x_1))) (= x_288 3)) (= x_289 (select x_199 x_2))) (= x_289 3))))
; --- Injected Array Sum Constraint ---
(assert (sum x_6 (+ x_133 (+ x_55 x_224))))
(assert (sum x_11 (+ x_188 (+ x_230 x_129))))
(assert (sum x_152 (+ x_1 (+ x_96 x_281))))
(assert (sum x_5 (+ x_43 (+ x_109 x_2))))
(assert (sum x_19 (+ x_285 (+ x_264 x_166))))
(check-sat)
(exit)